\* Built LP *\
Minimize
OBJ: __dummy
Subject To
_C1: var_0_0_0 + var_0_0_1 + var_0_0_2 + var_0_1_0 + var_0_1_1 + var_0_1_2 = 1
_C10: 10 var_0_0_0 + 10 var_0_1_0 <= 10
_C11: 10 var_0_0_1 + 10 var_0_1_1 <= 10
_C12: 10 var_0_0_2 + 10 var_0_1_2 <= 10
_C13: 30 var_1_0_0 + 30 var_1_1_0 <= 10
_C14: 30 var_1_0_1 + 30 var_1_1_1 <= 10
_C15: 30 var_1_0_2 + 30 var_1_1_2 <= 10
_C16: 20 var_2_0_0 + 20 var_2_1_0 <= 10
_C17: 20 var_2_0_1 + 20 var_2_1_1 <= 10
_C18: 20 var_2_0_2 + 20 var_2_1_2 <= 10
_C2: var_1_0_0 + var_1_0_1 + var_1_0_2 + var_1_1_0 + var_1_1_1 + var_1_1_2 = 1
_C3: var_2_0_0 + var_2_0_1 + var_2_0_2 + var_2_1_0 + var_2_1_1 + var_2_1_2 = 1
_C4: 10 var_0_0_0 + 30 var_1_0_0 + 20 var_2_0_0 <= 10
_C5: 10 var_0_0_1 + 30 var_1_0_1 + 20 var_2_0_1 <= 10
_C6: 10 var_0_0_2 + 30 var_1_0_2 + 20 var_2_0_2 <= 10
_C7: 10 var_0_1_0 + 30 var_1_1_0 + 20 var_2_1_0 <= 10
_C8: 10 var_0_1_1 + 30 var_1_1_1 + 20 var_2_1_1 <= 10
_C9: 10 var_0_1_2 + 30 var_1_1_2 + 20 var_2_1_2 <= 10
Bounds
__dummy = 0
var_0_0_0 <= 1
var_0_0_1 <= 1
var_0_0_2 <= 1
var_0_1_0 <= 1
var_0_1_1 <= 1
var_0_1_2 <= 1
var_1_0_0 <= 1
var_1_0_1 <= 1
var_1_0_2 <= 1
var_1_1_0 <= 1
var_1_1_1 <= 1
var_1_1_2 <= 1
var_2_0_0 <= 1
var_2_0_1 <= 1
var_2_0_2 <= 1
var_2_1_0 <= 1
var_2_1_1 <= 1
var_2_1_2 <= 1
End
